128312
4,18,23,30,47,21,43,67,58,52,7,82,27,78,5,60,14,68,24,41,54,22,11,2,56,42,59,46,80,71,50,55,6,26,32,15,10,39,81,74,37,1,29,34,31,73,57,76,8,16,19,65,35,25,69,61,79,44,45,53,70,20,17,36,12,72,63,28,9,0,13,75,66,64,49,3,62,38,40,51,77,33,48